NAME: Random_95_2
ELLAPSED_TIME_(ms): 1
TOUR_SIZE: 3012.002
TOUR_SECTION
0
75
17
11
45
28
49
12
54
29
6
10
63
86
84
35
93
77
38
32
76
2
74
14
7
37
79
42
64
82
50
55
31
34
22
26
15
52
59
18
65
25
53
33
44
3
8
51
56
68
47
80
36
27
71
30
1
48
73
90
23
40
24
83
57
72
92
61
19
62
89
87
67
5
46
39
91
69
41
81
43
66
16
58
78
4
85
94
20
70
13
21
9
60
88
0
EOF
